238.0  106.0
237.9  106.06
237.8  106.13
237.7  106.19
237.6  106.26
237.5  106.32
237.4  106.39
237.3  106.45
237.2  106.51
237.1  106.58
237.0  106.64
236.9  106.71
236.8  106.77
236.7  106.84
236.6  106.9
236.5  106.96
236.4  107.03
236.3  107.09
236.2  107.16
236.1  107.22
236.0  107.29
235.9  107.35
235.8  107.41
235.7  107.48
235.6  107.54
235.5  107.61
235.4  107.67
235.3  107.74
235.2  107.8
235.1  107.86
235.0  107.93
234.9  107.99
234.8  108.06
234.7  108.12
234.6  108.19
234.5  108.25
234.4  108.31
234.3  108.38
234.2  108.44
234.1  108.51
234.0  108.57
233.9  108.64
233.8  108.7
233.7  108.76
233.6  108.83
233.5  108.89
233.4  108.96
233.3  109.02
233.2  109.09
233.1  109.15
233.0  109.21
232.9  109.28
232.8  109.34
232.7  109.41
232.6  109.47
232.5  109.54
232.4  109.6
232.3  109.66
232.2  109.73
232.1  109.79
232.0  109.86
231.9  109.92
231.8  109.99
231.7  110.05
231.6  110.11
231.5  110.18
231.4  110.24
231.3  110.31
231.2  110.37
231.1  110.44
231.0  110.5
230.9  110.56
230.8  110.63
230.7  110.69
230.6  110.76
230.5  110.82
230.4  110.89
230.3  110.95
230.2  111.01
230.1  111.08
230.0  111.14
229.9  111.21
229.8  111.27
229.7  111.34
229.6  111.4
229.5  111.46
229.4  111.53
229.3  111.59
229.2  111.66
229.1  111.72
229.0  111.79
228.9  111.85
228.8  111.91
228.7  111.98
228.6  112.04
228.5  112.11
228.4  112.17
228.3  112.24
228.2  112.3
228.1  112.36
228.0  112.43
227.9  112.49
227.8  112.56
227.7  112.62
227.6  112.69
227.5  112.75
227.4  112.81
227.3  112.88
227.2  112.94
227.1  113.01
227.0  113.07
226.9  113.14
226.8  113.2
226.7  113.26
226.6  113.33
226.5  113.39
226.4  113.46
226.3  113.52
226.2  113.59
226.1  113.65
226.0  113.71
225.9  113.78
225.8  113.84
225.7  113.91
225.6  113.97
225.5  114.04
225.4  114.1
225.3  114.16
225.2  114.23
225.1  114.29
225.0  114.36
224.9  114.42
224.8  114.49
224.7  114.55
224.6  114.61
224.5  114.68
224.4  114.74
224.3  114.81
224.2  114.87
224.1  114.94
224.0  115.0
223.9  115.06
223.8  115.13
223.7  115.19
223.6  115.26
223.5  115.32
223.4  115.39
223.3  115.45
223.2  115.51
223.1  115.58
223.0  115.64
222.9  115.71
222.8  115.77
222.7  115.84
222.6  115.9
222.5  115.96
222.4  116.03
222.3  116.09
222.2  116.16
222.1  116.22
222.0  116.29
221.9  116.35
221.8  116.41
221.7  116.48
221.6  116.54
221.5  116.61
221.4  116.67
221.3  116.74
221.2  116.8
221.1  116.86
221.0  116.93
220.9  116.99
220.8  117.06
220.7  117.12
220.6  117.19
220.5  117.25
220.4  117.31
220.3  117.38
220.2  117.44
220.1  117.51
220.0  117.57
219.9  117.64
219.8  117.7
219.7  117.76
219.6  117.83
219.5  117.89
219.4  117.96
219.3  118.02
219.2  118.09
219.1  118.15
219.0  118.21
218.9  118.28
218.8  118.34
218.7  118.41
218.6  118.47
218.5  118.54
218.4  118.6
218.3  118.66
218.2  118.73
218.1  118.79
218.0  118.86
217.9  118.92
217.8  118.99
217.7  119.05
217.6  119.11
217.5  119.18
217.4  119.24
217.3  119.31
217.2  119.37
217.1  119.44
217.0  119.5
216.9  119.56
216.8  119.63
216.7  119.69
216.6  119.76
216.5  119.82
216.4  119.89
216.3  119.95
216.2  120.01
216.1  120.08
216.0  120.14
215.9  120.21
215.8  120.27
215.7  120.34
215.6  120.4
215.5  120.46
215.4  120.53
215.3  120.59
215.2  120.66
215.1  120.72
215.0  120.79
214.9  120.85
214.8  120.91
214.7  120.98
214.6  121.04
214.5  121.11
214.4  121.17
214.3  121.24
214.2  121.3
214.1  121.36
214.0  121.43
213.9  121.49
213.8  121.56
213.7  121.62
213.6  121.69
213.5  121.75
213.4  121.81
213.3  121.88
213.2  121.94
213.1  122.01
213.0  122.07
212.9  122.14
212.8  122.2
212.7  122.26
212.6  122.33
212.5  122.39
212.4  122.46
212.3  122.52
212.2  122.59
212.1  122.65
212.0  122.71
211.9  122.78
211.8  122.84
211.7  122.91
211.6  122.97
211.5  123.04
211.4  123.1
211.3  123.16
211.2  123.23
211.1  123.29
211.0  123.36
210.9  123.42
210.8  123.49
210.7  123.55
210.6  123.61
210.5  123.68
210.4  123.74
210.3  123.81
210.2  123.87
210.1  123.94
210.0  124.0
209.9  124.06
209.8  124.13
209.7  124.19
209.6  124.26
209.5  124.32
209.4  124.39
209.3  124.45
209.2  124.51
209.1  124.58
209.0  124.64
208.9  124.71
208.8  124.77
208.7  124.84
208.6  124.9
208.5  124.96
208.4  125.03
208.3  125.09
208.2  125.16
208.1  125.22
208.0  125.29
207.9  125.35
207.8  125.41
207.7  125.48
207.6  125.54
207.5  125.61
207.4  125.67
207.3  125.74
207.2  125.8
207.1  125.86
207.0  125.93
206.9  125.99
206.8  126.06
206.7  126.12
206.6  126.19
206.5  126.25
206.4  126.31
206.3  126.38
206.2  126.44
206.1  126.51
206.0  126.57
205.9  126.64
205.8  126.7
205.7  126.76
205.6  126.83
205.5  126.89
205.4  126.96
205.3  127.02
205.2  127.09
205.1  127.15
205.0  127.21
204.9  127.28
204.8  127.34
204.7  127.41
204.6  127.47
204.5  127.54
204.4  127.6
204.3  127.66
204.2  127.73
204.1  127.79
204.0  127.86
203.9  127.92
203.8  127.99
203.7  128.05
203.6  128.11
203.5  128.18
203.4  128.24
203.3  128.31
203.2  128.37
203.1  128.44
203.0  128.5
202.9  128.56
202.8  128.63
202.7  128.69
202.6  128.76
202.5  128.82
202.4  128.89
202.3  128.95
202.2  129.01
202.1  129.08
202.0  129.14
201.9  129.21
201.8  129.27
201.7  129.34
201.6  129.4
201.5  129.46
201.4  129.53
201.3  129.59
201.2  129.66
201.1  129.72
201.0  129.79
200.9  129.85
200.8  129.91
200.7  129.98
200.6  130.04
200.5  130.11
200.4  130.17
200.3  130.24
200.2  130.3
200.1  130.36
200.0  130.43
199.9  130.49
199.8  130.56
199.7  130.62
199.6  130.69
199.5  130.75
199.4  130.81
199.3  130.88
199.2  130.94
199.1  131.01
199.0  131.07
198.9  131.14
198.8  131.2
198.7  131.26
198.6  131.33
198.5  131.39
198.4  131.46
198.3  131.52
198.2  131.59
198.1  131.65
198.0  131.71
197.9  131.78
197.8  131.84
197.7  131.91
197.6  131.97
197.5  132.04
197.4  132.1
197.3  132.16
197.2  132.23
197.1  132.29
197.0  132.36
196.9  132.42
196.8  132.49
196.7  132.55
196.6  132.61
196.5  132.68
196.4  132.74
196.3  132.81
196.2  132.87
196.1  132.94
196.0  133.0
195.9  133.06
195.8  133.13
195.7  133.19
195.6  133.26
195.5  133.32
195.4  133.39
195.3  133.45
195.2  133.51
195.1  133.58
195.0  133.64
194.9  133.71
194.8  133.77
194.7  133.84
194.6  133.9
194.5  133.96
194.4  134.03
194.3  134.09
194.2  134.16
194.1  134.22
194.0  134.29
193.9  134.35
193.8  134.41
193.7  134.48
193.6  134.54
193.5  134.61
193.4  134.67
193.3  134.74
193.2  134.8
193.1  134.86
193.0  134.93
192.9  134.99
192.8  135.06
192.7  135.12
192.6  135.19
192.5  135.25
192.4  135.31
192.3  135.38
192.2  135.44
192.1  135.51
192.0  135.57
191.9  135.64
191.8  135.7
191.7  135.76
191.6  135.83
191.5  135.89
191.4  135.96
191.3  136.02
191.2  136.09
191.1  136.15
191.0  136.21
190.9  136.28
190.8  136.34
190.7  136.41
190.6  136.47
190.5  136.54
190.4  136.6
190.3  136.66
190.2  136.73
190.1  136.79
190.0  136.86
189.9  136.92
189.8  136.99
189.7  137.05
189.6  137.11
189.5  137.18
189.4  137.24
189.3  137.31
189.2  137.37
189.1  137.44
189.0  137.5
188.9  137.56
188.8  137.63
188.7  137.69
188.6  137.76
188.5  137.82
188.4  137.89
188.3  137.95
188.2  138.01
188.1  138.08
188.0  138.14
187.9  138.21
187.8  138.27
187.7  138.34
187.6  138.4
187.5  138.46
187.4  138.53
187.3  138.59
187.2  138.66
187.1  138.72
187.0  138.79
186.9  138.85
186.8  138.91
186.7  138.98
186.6  139.04
186.5  139.11
186.4  139.17
186.3  139.24
186.2  139.3
186.1  139.36
186.0  139.43
185.9  139.49
185.8  139.56
185.7  139.62
185.6  139.69
185.5  139.75
185.4  139.81
185.3  139.88
185.2  139.94
185.1  140.01
185.0  140.07
184.9  140.14
184.8  140.2
184.7  140.26
184.6  140.33
184.5  140.39
184.4  140.46
184.3  140.52
184.2  140.59
184.1  140.65
184.0  140.71
183.9  140.78
183.8  140.84
183.7  140.91
183.6  140.97
183.5  141.04
183.4  141.1
183.3  141.16
183.2  141.23
183.1  141.29
183.0  141.36
182.9  141.42
182.8  141.49
182.7  141.55
182.6  141.61
182.5  141.68
182.4  141.74
182.3  141.81
182.2  141.87
182.1  141.94
182.0  142.0
181.9  142.06
181.8  142.13
181.7  142.19
181.6  142.26
181.5  142.32
181.4  142.39
181.3  142.45
181.2  142.51
181.1  142.58
181.0  142.64
180.9  142.71
180.8  142.77
180.7  142.84
180.6  142.9
180.5  142.96
180.4  143.03
180.3  143.09
180.2  143.16
180.1  143.22
180.0  143.29
179.9  143.35
179.8  143.41
179.7  143.48
179.6  143.54
179.5  143.61
179.4  143.67
179.3  143.74
179.2  143.8
179.1  143.86
179.0  143.93
178.9  143.99
178.8  144.06
178.7  144.12
178.6  144.19
178.5  144.25
178.4  144.31
178.3  144.38
178.2  144.44
178.1  144.51
178.0  144.57
177.9  144.64
177.8  144.7
177.7  144.76
177.6  144.83
177.5  144.89
177.4  144.96
177.3  145.02
177.2  145.09
177.1  145.15
177.0  145.21
176.9  145.28
176.8  145.34
176.7  145.41
176.6  145.47
176.5  145.54
176.4  145.6
176.3  145.66
176.2  145.73
176.1  145.79
176.0  145.86
175.9  145.92
175.8  145.99
175.7  146.05
175.6  146.11
175.5  146.18
175.4  146.24
175.3  146.31
175.2  146.37
175.1  146.44
175.0  146.5
174.9  146.56
174.8  146.63
174.7  146.69
174.6  146.76
174.5  146.82
174.4  146.89
174.3  146.95
174.2  147.01
174.1  147.08
174.0  147.14
173.9  147.21
173.8  147.27
173.7  147.34
173.6  147.4
173.5  147.46
173.4  147.53
173.3  147.59
173.2  147.66
173.1  147.72
173.0  147.79
172.9  147.85
172.8  147.91
172.7  147.98
172.6  148.04
172.5  148.11
172.4  148.17
172.3  148.24
172.2  148.3
172.1  148.36
172.0  148.43
171.9  148.49
171.8  148.56
171.7  148.62
171.6  148.69
171.5  148.75
171.4  148.81
171.3  148.88
171.2  148.94
171.1  149.01
171.0  149.07
170.9  149.14
170.8  149.2
170.7  149.26
170.6  149.33
170.5  149.39
170.4  149.46
170.3  149.52
170.2  149.59
170.1  149.65
170.0  149.71
169.9  149.78
169.8  149.84
169.7  149.91
169.6  149.97
169.5  150.04
169.4  150.1
169.3  150.16
169.2  150.23
169.1  150.29
169.0  150.36
168.9  150.42
168.8  150.49
168.7  150.55
168.6  150.61
168.5  150.68
168.4  150.74
168.3  150.81
168.2  150.87
168.1  150.94
168.0  151.0
167.9  151.06
167.8  151.13
167.7  151.19
167.6  151.26
167.5  151.32
167.4  151.39
167.3  151.45
167.2  151.51
167.1  151.58
167.0  151.64
166.9  151.71
166.8  151.77
166.7  151.84
166.6  151.9
166.5  151.96
166.4  152.03
166.3  152.09
166.2  152.16
166.1  152.22
166.0  152.29
165.9  152.35
165.8  152.41
165.7  152.48
165.6  152.54
165.5  152.61
165.4  152.67
165.3  152.74
165.2  152.8
165.1  152.86
165.0  152.93
164.9  152.99
164.8  153.06
164.7  153.12
164.6  153.19
164.5  153.25
164.4  153.31
164.3  153.38
164.2  153.44
164.1  153.51
164.0  153.57
163.9  153.64
163.8  153.7
163.7  153.76
163.6  153.83
163.5  153.89
163.4  153.96
163.3  154.02
163.2  154.09
163.1  154.15
163.0  154.21
162.9  154.28
162.8  154.34
162.7  154.41
162.6  154.47
162.5  154.54
162.4  154.6
162.3  154.66
162.2  154.73
162.1  154.79
162.0  154.86
161.9  154.92
161.8  154.99
161.7  155.05
161.6  155.11
161.5  155.18
161.4  155.24
161.3  155.31
161.2  155.37
161.1  155.44
161.0  155.5
160.9  155.56
160.8  155.63
160.7  155.69
160.6  155.76
160.5  155.82
160.4  155.89
160.3  155.95
160.2  156.01
160.1  156.08
160.0  156.14
159.9  156.21
159.8  156.27
159.7  156.34
159.6  156.4
159.5  156.46
159.4  156.53
159.3  156.59
159.2  156.66
159.1  156.72
159.0  156.79
158.9  156.85
158.8  156.91
158.7  156.98
158.6  157.04
158.5  157.11
158.4  157.17
158.3  157.24
158.2  157.3
158.1  157.36
158.0  157.43
157.9  157.49
157.8  157.56
157.7  157.62
157.6  157.69
157.5  157.75
157.4  157.81
157.3  157.88
157.2  157.94
157.1  158.01
157.0  158.07
156.9  158.14
156.8  158.2
156.7  158.26
156.6  158.33
156.5  158.39
156.4  158.46
156.3  158.52
156.2  158.59
156.1  158.65
156.0  158.71
155.9  158.78
155.8  158.84
155.7  158.91
155.6  158.97
155.5  159.04
155.4  159.1
155.3  159.16
155.2  159.23
155.1  159.29
155.0  159.36
154.9  159.42
154.8  159.49
154.7  159.55
154.6  159.61
154.5  159.68
154.4  159.74
154.3  159.81
154.2  159.87
154.1  159.94
154.0  160.0
153.9  160.06
153.8  160.13
153.7  160.19
153.6  160.26
153.5  160.32
153.4  160.39
153.3  160.45
153.2  160.51
153.1  160.58
153.0  160.64
152.9  160.71
152.8  160.77
152.7  160.84
152.6  160.9
152.5  160.96
152.4  161.03
152.3  161.09
152.2  161.16
152.1  161.22
152.0  161.29
151.9  161.35
151.8  161.41
151.7  161.48
151.6  161.54
151.5  161.61
151.4  161.67
151.3  161.74
151.2  161.8
151.1  161.86
151.0  161.93
150.9  161.99
150.8  162.06
150.7  162.12
150.6  162.19
150.5  162.25
150.4  162.31
150.3  162.38
150.2  162.44
150.1  162.51
150.0  162.57
149.9  162.64
149.8  162.7
149.7  162.76
149.6  162.83
149.5  162.89
149.4  162.96
149.3  163.02
149.2  163.09
149.1  163.15
149.0  163.21
148.9  163.28
148.8  163.34
148.7  163.41
148.6  163.47
148.5  163.54
148.4  163.6
148.3  163.66
148.2  163.73
148.1  163.79
148.0  163.86
147.9  163.92
147.8  163.99
147.7  164.05
147.6  164.11
147.5  164.18
147.4  164.24
147.3  164.31
147.2  164.37
147.1  164.43
147.0  164.5
146.9  164.56
146.8  164.63
146.7  164.69
146.6  164.76
146.5  164.82
146.4  164.88
146.3  164.95
146.2  165.01
146.1  165.08
146.0  165.14
145.9  165.21
145.8  165.27
145.7  165.33
145.6  165.4
145.5  165.46
145.4  165.53
145.3  165.59
145.2  165.65
145.1  165.72
145.0  165.78
144.9  165.85
144.8  165.91
144.7  165.98
144.6  166.04
144.5  166.1
144.4  166.17
144.3  166.23
144.2  166.3
144.1  166.36
144.0  166.43
143.9  166.49
143.8  166.55
143.7  166.62
143.6  166.68
143.5  166.75
143.4  166.81
143.3  166.88
143.2  166.94
143.1  167.01
143.0  167.07
142.9  167.14
142.8  167.2
142.7  167.26
142.6  167.33
142.5  167.39
142.4  167.46
142.3  167.52
142.2  167.59
142.1  167.65
142.0  167.72
141.9  167.78
141.8  167.85
141.7  167.91
141.6  167.98
141.5  168.04
141.4  168.11
141.3  168.17
141.2  168.24
141.1  168.3
141.0  168.37
140.9  168.43
140.8  168.5
140.7  168.56
140.6  168.63
140.5  168.69
140.4  168.76
140.3  168.82
140.2  168.89
140.1  168.95
140.0  169.02
139.9  169.08
139.8  169.15
139.7  169.21
139.6  169.27
139.5  169.34
139.4  169.4
139.3  169.47
139.2  169.53
139.1  169.6
139.0  169.66
138.9  169.72
138.8  169.79
138.7  169.85
138.6  169.92
138.5  169.98
138.4  170.04
138.3  170.11
138.2  170.17
138.1  170.23
138.0  170.29
137.9  170.36
137.8  170.42
137.7  170.48
137.6  170.54
137.5  170.61
137.4  170.67
137.3  170.73
137.2  170.79
137.1  170.85
137.0  170.92
136.9  170.98
136.8  171.04
136.7  171.1
136.6  171.16
136.5  171.22
136.4  171.28
136.3  171.34
136.2  171.4
136.1  171.46
136.0  171.52
135.9  171.58
135.8  171.64
135.7  171.7
135.6  171.76
135.5  171.83
135.4  171.89
135.3  171.95
135.2  172.01
135.1  172.07
135.0  172.13
134.9  172.19
134.8  172.25
134.7  172.31
134.6  172.37
134.5  172.44
134.4  172.5
134.3  172.56
134.2  172.63
134.1  172.69
134.0  172.75
133.9  172.82
133.8  172.88
133.7  172.95
133.6  173.02
133.5  173.08
133.4  173.15
133.3  173.22
133.2  173.29
133.1  173.36
133.0  173.43
132.9  173.5
132.8  173.57
132.7  173.65
132.6  173.72
132.5  173.8
132.4  173.87
132.3  173.95
132.2  174.03
132.1  174.11
132.0  174.19
131.9  174.27
131.8  174.35
131.7  174.44
131.6  174.52
131.5  174.61
131.4  174.69
131.3  174.78
131.2  174.87
131.1  174.95
131.0  175.04
130.9  175.13
130.8  175.22
130.7  175.31
130.6  175.4
130.5  175.5
130.4  175.59
130.3  175.68
130.2  175.77
130.1  175.86
130.0  175.96
129.9  176.05
129.8  176.14
129.7  176.23
129.6  176.32
129.5  176.41
129.4  176.5
129.3  176.58
129.2  176.67
129.1  176.75
129.0  176.84
128.9  176.92
128.8  177.0
128.7  177.07
128.6  177.15
128.5  177.22
128.4  177.29
128.3  177.36
128.2  177.42
128.1  177.48
128.0  177.54
127.9  177.59
127.8  177.64
127.7  177.69
127.6  177.74
127.5  177.78
127.4  177.81
127.3  177.85
127.2  177.88
127.1  177.9
127.0  177.92
126.9  177.94
126.8  177.96
126.7  177.97
126.6  177.98
126.5  177.99
126.4  177.99
126.3  178.0
126.2  178.0
126.1  178.0
126	178
126.1	178
126.2	178
126.3	178.01
126.4	178.02
126.5	178.03
126.6	178.06
126.7	178.09
126.8	178.13
126.9	178.17
127	178.23
127.1	178.3
127.2	178.38
127.3	178.47
127.4	178.57
127.5	178.68
127.6	178.8
127.7	178.94
127.8	179.08
127.9	179.23
128	179.4
128.1	179.57
128.2	179.76
128.3	179.95
128.4	180.15
128.5	180.36
128.6	180.58
128.7	180.81
128.8	181.04
128.9	181.28
129	181.52
129.1	181.77
129.2	182.03
129.3	182.29
129.4	182.55
129.5	182.82
129.6	183.09
129.7	183.36
129.8	183.64
129.9	183.91
130	184.19
130.1	184.47
130.2	184.75
130.3	185.03
130.4	185.31
130.5	185.59
130.6	185.87
130.7	186.14
130.8	186.42
130.9	186.69
131	186.96
131.1	187.23
131.2	187.5
131.3	187.77
131.4	188.03
131.5	188.29
131.6	188.55
131.7	188.8
131.8	189.05
131.9	189.3
132	189.55
132.1	189.79
132.2	190.03
132.3	190.27
132.4	190.5
132.5	190.73
132.6	190.96
132.7	191.19
132.8	191.41
132.9	191.63
133	191.85
133.1	192.06
133.2	192.28
133.3	192.49
133.4	192.69
133.5	192.9
133.6	193.1
133.7	193.31
133.8	193.51
133.9	193.7
134	193.9
134.1	194.09
134.2	194.29
134.3	194.48
134.4	194.67
134.5	194.86
134.6	195.05
134.7	195.24
134.8	195.42
134.9	195.61
135	195.79
135.1	195.98
135.2	196.16
135.3	196.35
135.4	196.53
135.5	196.71
135.6	196.9
135.7	197.08
135.8	197.26
135.9	197.45
136	197.63
136.1	197.81
136.2	198
136.3	198.18
136.4	198.36
136.5	198.55
136.6	198.73
136.7	198.92
136.8	199.1
136.9	199.29
137	199.47
137.1	199.66
137.2	199.84
137.3	200.03
137.4	200.22
137.5	200.41
137.6	200.6
137.7	200.78
137.8	200.97
137.9	201.16
138	201.35
138.1	201.54
138.2	201.73
138.3	201.93
138.4	202.12
138.5	202.31
138.6	202.5
138.7	202.69
138.8	202.89
138.9	203.08
139	203.28
139.1	203.47
139.2	203.66
139.3	203.86
139.4	204.05
139.5	204.25
139.6	204.44
139.7	204.64
139.8	204.84
139.9	205.03
140	205.23
140.1	205.42
140.2	205.62
140.3	205.82
140.4	206.01
140.5	206.21
140.6	206.41
140.7	206.6
140.8	206.8
140.9	207
141	207.19
141.1	207.39
141.2	207.59
141.3	207.78
141.4	207.98
141.5	208.18
141.6	208.37
141.7	208.57
141.8	208.77
141.9	208.96
142	209.16
142.1	209.36
142.2	209.55
142.3	209.75
142.4	209.95
142.5	210.14
142.6	210.34
142.7	210.53
142.8	210.73
142.9	210.93
143	211.12
143.1	211.32
143.2	211.51
143.3	211.71
143.4	211.9
143.5	212.1
143.6	212.3
143.7	212.49
143.8	212.69
143.9	212.88
144	213.08
144.1	213.27
144.2	213.47
144.3	213.66
144.4	213.86
144.5	214.05
144.6	214.25
144.7	214.44
144.8	214.64
144.9	214.83
145	215.03
145.1	215.22
145.2	215.41
145.3	215.61
145.4	215.8
145.5	216
145.6	216.19
145.7	216.39
145.8	216.58
145.9	216.78
146	216.97
146.1	217.17
146.2	217.36
146.3	217.56
146.4	217.75
146.5	217.94
146.6	218.14
146.7	218.33
146.8	218.53
146.9	218.72
147	218.92
147.1	219.11
147.2	219.31
147.3	219.5
147.4	219.69
147.5	219.89
147.6	220.08
147.7	220.28
147.8	220.47
147.9	220.67
148	220.86
148.1	221.06
148.2	221.25
148.3	221.45
148.4	221.64
148.5	221.84
148.6	222.03
148.7	222.23
148.8	222.42
148.9	222.61
149	222.81
149.1	223
149.2	223.2
149.3	223.39
149.4	223.59
149.5	223.78
149.6	223.98
149.7	224.17
149.8	224.37
149.9	224.56
150	224.76
150.1	224.95
150.2	225.15
150.3	225.34
150.4	225.54
150.5	225.73
150.6	225.93
150.7	226.12
150.8	226.32
150.9	226.51
151	226.71
151.1	226.9
151.2	227.1
151.3	227.29
151.4	227.49
151.5	227.68
151.6	227.88
151.7	228.07
151.8	228.26
151.9	228.46
152	228.65
152.1	228.85
152.2	229.04
152.3	229.24
152.4	229.43
152.5	229.63
152.6	229.82
152.7	230.02
152.8	230.21
152.9	230.41
153	230.6
153.1	230.8
153.2	230.99
153.3	231.19
153.4	231.38
153.5	231.58
153.6	231.77
153.7	231.97
153.8	232.16
153.9	232.36
154	232.55
154.1	232.75
154.2	232.94
154.3	233.14
154.4	233.33
154.5	233.53
154.6	233.72
154.7	233.92
154.8	234.11
154.9	234.31
155	234.5
155.1	234.7
155.2	234.89
155.3	235.08
155.4	235.28
155.5	235.47
155.6	235.67
155.7	235.86
155.8	236.06
155.9	236.25
156	236.45
156.1	236.64
156.2	236.84
156.3	237.03
156.4	237.23
156.5	237.42
156.6	237.62
156.7	237.81
156.8	238.01
156.9	238.2
157	238.4
157.1	238.59
157.2	238.79
157.3	238.98
157.4	239.18
157.5	239.37
157.6	239.57
157.7	239.76
157.8	239.96
157.9	240.15
158	240.34
158.1	240.54
158.2	240.73
158.3	240.93
158.4	241.12
158.5	241.32
158.6	241.51
158.7	241.71
158.8	241.9
158.9	242.1
159	242.29
159.1	242.49
159.2	242.68
159.3	242.88
159.4	243.07
159.5	243.27
159.6	243.46
159.7	243.66
159.8	243.85
159.9	244.05
160	244.24
160.1	244.44
160.2	244.63
160.3	244.83
160.4	245.02
160.5	245.22
160.6	245.41
160.7	245.61
160.8	245.8
160.9	245.99
161	246.19
161.1	246.38
161.2	246.58
161.3	246.77
161.4	246.97
161.5	247.16
161.6	247.36
161.7	247.55
161.8	247.75
161.9	247.94
162	248.14
162.1	248.33
162.2	248.53
162.3	248.72
162.4	248.92
162.5	249.11
162.6	249.31
162.7	249.5
162.8	249.7
162.9	249.89
163	250.09
163.1	250.28
163.2	250.48
163.3	250.67
163.4	250.87
163.5	251.06
163.6	251.26
163.7	251.45
163.8	251.64
163.9	251.84
164	252.03
164.1	252.23
164.2	252.42
164.3	252.62
164.4	252.81
164.5	253.01
164.6	253.2
164.7	253.4
164.8	253.59
164.9	253.79
165	253.98
165.1	254.18
165.2	254.37
165.3	254.57
165.4	254.76
165.5	254.96
165.6	255.15
165.7	255.35
165.8	255.54
165.9	255.74
166	255.93
166.1	256.13
166.2	256.32
166.3	256.52
166.4	256.71
166.5	256.91
166.6	257.1
166.7	257.29
166.8	257.49
166.9	257.68
167	257.88
167.1	258.07
167.2	258.27
167.3	258.46
167.4	258.66
167.5	258.85
167.6	259.05
167.7	259.24
167.8	259.44
167.9	259.63
168	259.83
168.1	260.02
168.2	260.22
168.3	260.41
168.4	260.61
168.5	260.8
168.6	261
168.7	261.19
168.8	261.39
168.9	261.58
169	261.78
169.1	261.97
169.2	262.17
169.3	262.36
169.4	262.56
169.5	262.75
169.6	262.94
169.7	263.14
169.8	263.33
169.9	263.53
170	263.72
170.1	263.92
170.2	264.11
170.3	264.31
170.4	264.5
170.5	264.7
170.6	264.89
170.7	265.09
170.8	265.28
170.9	265.48
171	265.67
171.1	265.87
171.2	266.06
171.3	266.26
171.4	266.45
171.5	266.65
171.6	266.84
171.7	267.04
171.8	267.23
171.9	267.43
172	267.62
172.1	267.82
172.2	268.01
172.3	268.21
172.4	268.4
172.5	268.59
172.6	268.79
172.7	268.98
172.8	269.18
172.9	269.37
173	269.57
173.1	269.76
173.2	269.96
173.3	270.15
173.4	270.35
173.5	270.54
173.6	270.74
173.7	270.93
173.8	271.13
173.9	271.32
174	 271.52
174.1	271.71
174.2	271.91
174.3	272.1
174.4	272.3
174.5	272.49
174.6	272.69
174.7	272.88
174.8	273.08
174.9	273.27
175	 273.47
175.1	273.66
175.2	273.86
175.3	274.05
175.4	274.24
175.5	274.44
175.6	274.63
175.7	274.83
175.8	275.02
175.9	275.22
176 	275.41
176.1	275.61
176.2	275.8
176.3	276
176.4	276.19
176.5	276.39
176.6	276.58
176.7	276.78
176.8	276.97
176.9	277.17
177	    277.36
177.1	277.56
177.2	277.75
177.3	277.95
177.4	278.14
177.5	278.34
177.6	278.53
177.7	278.73
177.8	278.92
177.9	279.12
178	    279.31
178.1	279.51
178.2	279.7
178.3	279.89
178.4	280.09
178.5	280.28
178.6	280.48
178.7	280.67
178.8	280.87
178.9	281.06
179	    281.26
179.1	281.45
179.2	281.65
179.3	281.84
179.4	282.04
179.5	282.23
179.6	282.43
179.7	282.62
179.8	282.82
179.9	283.01
180	    283.21
180.1	283.4
180.2	283.6
180.3	283.79
180.4	283.99
180.5	284.18
180.6	284.38
180.7	284.57
180.8	284.77
180.9	284.96
181	    285.16
181.1	285.35
181.2	285.54
181.3	285.74
181.4	285.93
181.5	286.13
181.6	286.32
181.7	286.52
181.8	286.71
181.9	286.91
182  	287.1
182.1	287.3
182.2	287.49
182.3	287.69
182.4	287.88
182.5	288.08
182.6	288.27
182.7	288.47
182.8	288.66
182.9	288.86
183  	289.05
183.1	289.25
183.2	289.44
183.3	289.64
183.4	289.83
183.5	290.03
183.6	290.22
183.7	290.42
183.8	290.61
183.9	290.81
184     291
184.0  291.0
183.9  291.05
183.8  291.09
183.7  291.14
183.6  291.19
183.5  291.24
183.4  291.29
183.3  291.33
183.2  291.38
183.1  291.43
183.0  291.48
182.9  291.52
182.8  291.57
182.7  291.62
182.6  291.67
182.5  291.71
182.4  291.76
182.3  291.81
182.2  291.86
182.1  291.9
182.0  291.95
181.9  292.0
181.8  292.05
181.7  292.09
181.6  292.14
181.5  292.19
181.4  292.24
181.3  292.28
181.2  292.33
181.1  292.38
181.0  292.43
180.9  292.47
180.8  292.52
180.7  292.57
180.6  292.62
180.5  292.66
180.4  292.71
180.3  292.76
180.2  292.81
180.1  292.85
180.0  292.9
179.9  292.95
179.8  293.0
179.7  293.04
179.6  293.09
179.5  293.14
179.4  293.19
179.3  293.23
179.2  293.28
179.1  293.33
179.0  293.37
178.9  293.42
178.8  293.47
178.7  293.52
178.6  293.56
178.5  293.61
178.4  293.66
178.3  293.71
178.2  293.75
178.1  293.8
178.0  293.85
177.9  293.9
177.8  293.94
177.7  293.99
177.6  294.04
177.5  294.09
177.4  294.13
177.3  294.18
177.2  294.23
177.1  294.28
177.0  294.32
176.9  294.37
176.8  294.42
176.7  294.47
176.6  294.51
176.5  294.56
176.4  294.61
176.3  294.66
176.2  294.7
176.1  294.75
176.0  294.8
175.9  294.85
175.8  294.89
175.7  294.94
175.6  294.99
175.5  295.04
175.4  295.08
175.3  295.13
175.2  295.18
175.1  295.23
175.0  295.27
174.9  295.32
174.8  295.37
174.7  295.42
174.6  295.46
174.5  295.51
174.4  295.56
174.3  295.61
174.2  295.65
174.1  295.7
174.0  295.75
173.9  295.8
173.8  295.85
173.7  295.89
173.6  295.94
173.5  295.99
173.4  296.04
173.3  296.08
173.2  296.13
173.1  296.18
173.0  296.23
172.9  296.27
172.8  296.32
172.7  296.37
172.6  296.42
172.5  296.46
172.4  296.51
172.3  296.56
172.2  296.61
172.1  296.65
172.0  296.7
171.9  296.75
171.8  296.8
171.7  296.84
171.6  296.89
171.5  296.94
171.4  296.99
171.3  297.03
171.2  297.08
171.1  297.13
171.0  297.18
170.9  297.22
170.8  297.27
170.7  297.32
170.6  297.37
170.5  297.41
170.4  297.46
170.3  297.51
170.2  297.56
170.1  297.6
170.0  297.65
169.9  297.7
169.8  297.75
169.7  297.79
169.6  297.84
169.5  297.89
169.4  297.94
169.3  297.98
169.2  298.03
169.1  298.08
169.0  298.13
168.9  298.17
168.8  298.22
168.7  298.27
168.6  298.31
168.5  298.36
168.4  298.41
168.3  298.46
168.2  298.5
168.1  298.55
168.0  298.6
167.9  298.65
167.8  298.69
167.7  298.74
167.6  298.79
167.5  298.84
167.4  298.88
167.3  298.93
167.2  298.98
167.1  299.03
167.0  299.07
166.9  299.12
166.8  299.17
166.7  299.22
166.6  299.26
166.5  299.31
166.4  299.36
166.3  299.41
166.2  299.45
166.1  299.5
166.0  299.55
165.9  299.6
165.8  299.64
165.7  299.69
165.6  299.74
165.5  299.79
165.4  299.83
165.3  299.88
165.2  299.93
165.1  299.98
165.0  300.02
164.9  300.07
164.8  300.12
164.7  300.17
164.6  300.21
164.5  300.26
164.4  300.31
164.3  300.36
164.2  300.4
164.1  300.45
164.0  300.5
163.9  300.55
163.8  300.59
163.7  300.64
163.6  300.69
163.5  300.74
163.4  300.79
163.3  300.83
163.2  300.88
163.1  300.93
163.0  300.98
162.9  301.02
162.8  301.07
162.7  301.12
162.6  301.17
162.5  301.21
162.4  301.26
162.3  301.31
162.2  301.36
162.1  301.4
162.0  301.45
161.9  301.5
161.8  301.55
161.7  301.59
161.6  301.64
161.5  301.69
161.4  301.74
161.3  301.78
161.2  301.83
161.1  301.88
161.0  301.93
160.9  301.97
160.8  302.02
160.7  302.07
160.6  302.12
160.5  302.16
160.4  302.21
160.3  302.26
160.2  302.31
160.1  302.35
160.0  302.4
159.9  302.45
159.8  302.5
159.7  302.54
159.6  302.59
159.5  302.64
159.4  302.69
159.3  302.73
159.2  302.78
159.1  302.83
159.0  302.88
158.9  302.92
158.8  302.97
158.7  303.02
158.6  303.07
158.5  303.11
158.4  303.16
158.3  303.21
158.2  303.26
158.1  303.3
158.0  303.35
157.9  303.4
157.8  303.44
157.7  303.49
157.6  303.54
157.5  303.59
157.4  303.63
157.3  303.68
157.2  303.73
157.1  303.78
157.0  303.82
156.9  303.87
156.8  303.92
156.7  303.97
156.6  304.01
156.5  304.06
156.4  304.11
156.3  304.16
156.2  304.2
156.1  304.25
156.0  304.3
155.9  304.35
155.8  304.39
155.7  304.44
155.6  304.49
155.5  304.54
155.4  304.58
155.3  304.63
155.2  304.68
155.1  304.73
155.0  304.77
154.9  304.82
154.8  304.87
154.7  304.92
154.6  304.96
154.5  305.01
154.4  305.06
154.3  305.11
154.2  305.15
154.1  305.2
154.0  305.25
153.9  305.3
153.8  305.34
153.7  305.39
153.6  305.44
153.5  305.49
153.4  305.53
153.3  305.58
153.2  305.63
153.1  305.68
153.0  305.72
152.9  305.77
152.8  305.82
152.7  305.87
152.6  305.92
152.5  305.96
152.4  306.01
152.3  306.06
152.2  306.11
152.1  306.15
152.0  306.2
151.9  306.25
151.8  306.3
151.7  306.34
151.6  306.39
151.5  306.44
151.4  306.49
151.3  306.53
151.2  306.58
151.1  306.63
151.0  306.68
150.9  306.72
150.8  306.77
150.7  306.82
150.6  306.87
150.5  306.91
150.4  306.96
150.3  307.01
150.2  307.06
150.1  307.1
150.0  307.15
149.9  307.2
149.8  307.25
149.7  307.29
149.6  307.34
149.5  307.39
149.4  307.44
149.3  307.48
149.2  307.53
149.1  307.58
149.0  307.63
148.9  307.67
148.8  307.72
148.7  307.77
148.6  307.82
148.5  307.86
148.4  307.91
148.3  307.96
148.2  308.01
148.1  308.05
148.0  308.1
147.9  308.15
147.8  308.2
147.7  308.24
147.6  308.29
147.5  308.34
147.4  308.38
147.3  308.43
147.2  308.48
147.1  308.53
147.0  308.57
146.9  308.62
146.8  308.67
146.7  308.72
146.6  308.76
146.5  308.81
146.4  308.86
146.3  308.91
146.2  308.95
146.1  309.0
146.0  309.05
145.9  309.1
145.8  309.14
145.7  309.19
145.6  309.24
145.5  309.29
145.4  309.33
145.3  309.38
145.2  309.43
145.1  309.48
145.0  309.52
144.9  309.57
144.8  309.62
144.7  309.67
144.6  309.71
144.5  309.76
144.4  309.81
144.3  309.86
144.2  309.9
144.1  309.95
144.0  310.0
143.9  310.05
143.8  310.09
143.7  310.14
143.6  310.19
143.5  310.24
143.4  310.28
143.3  310.33
143.2  310.38
143.1  310.43
143.0  310.47
142.9  310.52
142.8  310.57
142.7  310.62
142.6  310.66
142.5  310.71
142.4  310.76
142.3  310.81
142.2  310.85
142.1  310.9
142.0  310.95
141.9  311.0
141.8  311.05
141.7  311.09
141.6  311.14
141.5  311.19
141.4  311.24
141.3  311.28
141.2  311.33
141.1  311.38
141.0  311.43
140.9  311.47
140.8  311.52
140.7  311.57
140.6  311.62
140.5  311.66
140.4  311.71
140.3  311.76
140.2  311.81
140.1  311.85
140.0  311.9
139.9  311.95
139.8  312.0
139.7  312.04
139.6  312.09
139.5  312.14
139.4  312.19
139.3  312.23
139.2  312.28
139.1  312.33
139.0  312.38
138.9  312.42
138.8  312.47
138.7  312.52
138.6  312.57
138.5  312.61
138.4  312.66
138.3  312.71
138.2  312.76
138.1  312.8
138.0  312.85
137.9  312.9
137.8  312.95
137.7  312.99
137.6  313.04
137.5  313.09
137.4  313.14
137.3  313.18
137.2  313.23
137.1  313.28
137.0  313.33
136.9  313.37
136.8  313.42
136.7  313.47
136.6  313.51
136.5  313.56
136.4  313.61
136.3  313.66
136.2  313.7
136.1  313.75
136.0  313.8
135.9  313.85
135.8  313.89
135.7  313.94
135.6  313.99
135.5  314.04
135.4  314.08
135.3  314.13
135.2  314.18
135.1  314.23
135.0  314.27
134.9  314.32
134.8  314.37
134.7  314.42
134.6  314.46
134.5  314.51
134.4  314.56
134.3  314.61
134.2  314.65
134.1  314.7
134.0  314.75
133.9  314.8
133.8  314.84
133.7  314.89
133.6  314.94
133.5  314.99
133.4  315.03
133.3  315.08
133.2  315.13
133.1  315.18
133.0  315.22
132.9  315.27
132.8  315.32
132.7  315.37
132.6  315.41
132.5  315.46
132.4  315.51
132.3  315.56
132.2  315.6
132.1  315.65
132.0  315.7
131.9  315.75
131.8  315.79
131.7  315.84
131.6  315.89
131.5  315.94
131.4  315.99
131.3  316.03
131.2  316.08
131.1  316.13
131.0  316.18
130.9  316.22
130.8  316.27
130.7  316.32
130.6  316.37
130.5  316.41
130.4  316.46
130.3  316.51
130.2  316.56
130.1  316.6
130.0  316.65
129.9  316.7
129.8  316.75
129.7  316.79
129.6  316.84
129.5  316.89
129.4  316.94
129.3  316.98
129.2  317.03
129.1  317.08
129.0  317.13
128.9  317.17
128.8  317.22
128.7  317.27
128.6  317.32
128.5  317.36
128.4  317.41
128.3  317.46
128.2  317.51
128.1  317.55
128.0  317.6
127.9  317.65
127.8  317.7
127.7  317.74
127.6  317.79
127.5  317.84
127.4  317.89
127.3  317.93
127.2  317.98
127.1  318.03
127.0  318.08
126.9  318.12
126.8  318.17
126.7  318.22
126.6  318.27
126.5  318.31
126.4  318.36
126.3  318.41
126.2  318.46
126.1  318.5
126.0  318.55
125.9  318.6
125.8  318.64
125.7  318.69
125.6  318.74
125.5  318.79
125.4  318.83
125.3  318.88
125.2  318.93
125.1  318.98
125.0  319.02
124.9  319.07
124.8  319.12
124.7  319.17
124.6  319.21
124.5  319.26
124.4  319.31
124.3  319.36
124.2  319.4
124.1  319.45
124.0  319.5
123.9  319.55
123.8  319.59
123.7  319.64
123.6  319.69
123.5  319.74
123.4  319.78
123.3  319.83
123.2  319.88
123.1  319.93
123.0  319.97
122.9  320.02
122.8  320.07
122.7  320.12
122.6  320.16
122.5  320.21
122.4  320.26
122.3  320.31
122.2  320.35
122.1  320.4
122.0  320.45
121.9  320.5
121.8  320.54
121.7  320.59
121.6  320.64
121.5  320.69
121.4  320.73
121.3  320.78
121.2  320.83
121.1  320.88
121.0  320.92
120.9  320.97
120.8  321.02
120.7  321.07
120.6  321.12
120.5  321.16
120.4  321.21
120.3  321.26
120.2  321.31
120.1  321.36
120.0  321.4
119.9  321.45
119.8  321.5
119.7  321.55
119.6  321.59
119.5  321.64
119.4  321.69
119.3  321.74
119.2  321.79
119.1  321.83
119.0  321.88
118.9  321.93
118.8  321.98
118.7  322.03
118.6  322.07
118.5  322.12
118.4  322.17
118.3  322.22
118.2  322.27
118.1  322.31
118.0  322.36
117.9  322.41
117.8  322.46
117.7  322.51
117.6  322.55
117.5  322.6
117.4  322.65
117.3  322.7
117.2  322.74
117.1  322.79
117.0  322.84
116.9  322.88
116.8  322.93
116.7  322.98
116.6  323.03
116.5  323.07
116.4  323.12
116.3  323.17
116.2  323.21
116.1  323.26
116.0  323.31
115.9  323.35
115.8  323.4
115.7  323.45
115.6  323.49
115.5  323.54
115.4  323.58
115.3  323.63
115.2  323.67
115.1  323.72
115.0  323.77
114.9  323.81
114.8  323.86
114.7  323.9
114.6  323.95
114.5  323.99
114.4  324.04
114.3  324.08
114.2  324.12
114.1  324.17
114.0  324.21
113.9  324.26
113.8  324.3
113.7  324.35
113.6  324.39
113.5  324.44
113.4  324.48
113.3  324.53
113.2  324.57
113.1  324.62
113.0  324.66
112.9  324.71
112.8  324.75
112.7  324.8
112.6  324.84
112.5  324.89
112.4  324.94
112.3  324.98
112.2  325.03
112.1  325.08
112.0  325.12
111.9  325.17
111.8  325.22
111.7  325.27
111.6  325.32
111.5  325.37
111.4  325.42
111.3  325.47
111.2  325.52
111.1  325.57
111.0  325.62
110.9  325.68
110.8  325.73
110.7  325.78
110.6  325.84
110.5  325.9
110.4  325.95
110.3  326.01
110.2  326.07
110.1  326.13
110.0  326.18
109.9  326.24
109.8  326.31
109.7  326.37
109.6  326.43
109.5  326.49
109.4  326.55
109.3  326.62
109.2  326.68
109.1  326.75
109.0  326.81
108.9  326.88
108.8  326.95
108.7  327.01
108.6  327.08
108.5  327.15
108.4  327.22
108.3  327.29
108.2  327.35
108.1  327.42
108.0  327.49
107.9  327.56
107.8  327.63
107.7  327.69
107.6  327.76
107.5  327.82
107.4  327.89
107.3  327.95
107.2  328.02
107.1  328.08
107.0  328.14
106.9  328.2
106.8  328.26
106.7  328.32
106.6  328.37
106.5  328.42
106.4  328.48
106.3  328.52
106.2  328.57
106.1  328.62
106.0  328.66
105.9  328.7
105.8  328.74
105.7  328.77
105.6  328.8
105.5  328.83
105.4  328.86
105.3  328.89
105.2  328.91
105.1  328.93
105.0  328.94
104.9  328.96
104.8  328.97
104.7  328.98
104.6  328.99
104.5  328.99
104.4  329.0
104.3  329.0
104.2  329.0
104.1  329.0